20J7M/DAT/20J7MNNL-2.dat
20 7
18.8904 18.8904
30.7028 30.7028
22.1797 22.1797
32.4771 32.4771
29.8299 29.8299
26.8773 26.8773
32.9448 32.9448
27.3969 27.3969
28.1143 28.1143
21.8196 21.8196
32.0309 32.0309
23.6498 23.6498
31.8485 31.8485
28.5013 28.5013
23.4047 23.4047
24.8327 24.8327
26.685 26.685
23.5342 23.5342
21.6666 21.6666
23.8556 23.8556
531.2421