20J7M/SOL/20J7MNNL-2.sol
solution status: optimal solution found
objective value:                     75.8917285714286
x#1#4                                               1 	(obj:0)
x#2#3                                               1 	(obj:0)
x#3#1                               0.390653229239865 	(obj:0)
x#3#4                               0.609346770760135 	(obj:0)
x#4#1                               0.490024839480301 	(obj:0)
x#4#2                               0.132967097255781 	(obj:0)
x#4#3                               0.377008063263917 	(obj:0)
x#5#2                                               1 	(obj:0)
x#6#5                               0.906862987406792 	(obj:0)
x#6#7                              0.0931370125932084 	(obj:0)
x#7#3                                               1 	(obj:0)
x#8#7                                               1 	(obj:0)
x#9#6                                               1 	(obj:0)
x#10#4                                              1 	(obj:0)
x#11#2                              0.558455830374509 	(obj:0)
x#11#7                              0.441544169625491 	(obj:0)
x#12#6                                              1 	(obj:0)
x#13#7                                              1 	(obj:0)
x#14#1                              0.153455155679616 	(obj:0)
x#14#6                              0.846544844320384 	(obj:0)
x#15#1                                              1 	(obj:0)
x#16#5                                              1 	(obj:0)
x#17#5                                              1 	(obj:0)
x#18#1                                              1 	(obj:0)
x#19#4                                              1 	(obj:0)
x#20#2                                              1 	(obj:0)
z                                    75.8917285714286 	(obj:1)
